<number of tasks>
45

<cycle time>
111

<task times>
1 9
2 9
3 10
4 10
5 17
6 17
7 13
8 13
9 20
10 20
11 10
12 11
13 6
14 22
15 11
16 19
17 12
18 3
19 7
20 4
21 55
22 14
23 27
24 29
25 26
26 6
27 5
28 24
29 4
30 5
31 7
32 4
33 15
34 3
35 7
36 9
37 4
38 7
39 5
40 4
41 21
42 12
43 6
44 5
45 5

<precedence relations>
1,3
1,7
2,4
2,8
3,5
4,6
5,9
6,10
7,9
7,14
8,10
8,14
9,41
10,41
11,13
12,13
12,37
13,14
13,15
14,17
14,25
14,29
14,30
14,31
14,32
15,16
15,18
15,23
15,24
16,19
17,26
17,27
18,19
19,20
19,33
20,21
21,22
22,28
23,33
24,33
25,26
26,38
27,28
27,33
28,38
29,41
30,41
31,41
32,41
33,34
33,35
33,36
34,38
35,40
36,38
37,43
38,40
39,41
40,41
41,42
42,44
42,45

<setup times forward>
1,3:1
1,4:1
1,6:1
1,16:1
1,19:1
1,21:1
1,22:1
1,24:1
2,3:1
2,4:1
2,5:1
2,16:1
2,19:1
2,21:1
2,22:1
2,24:1
3,2:1
3,7:1
3,8:1
3,10:1
3,11:1
3,12:1
3,13:1
3,14:1
3,15:1
3,17:1
3,18:1
3,20:1
3,23:1
3,30:1
3,31:1
3,32:1
3,37:1
3,39:1
3,43:1
4,1:1
4,7:1
4,8:1
4,9:1
4,11:1
4,12:1
4,13:1
4,14:1
4,15:1
4,17:1
4,18:1
4,20:1
4,23:1
4,30:1
4,31:1
4,32:1
4,37:1
4,39:1
4,43:1
5,2:1
5,7:1
5,8:1
5,9:1
5,10:1
5,11:1
5,12:1
5,13:1
5,14:1
5,15:1
5,17:1
5,18:1
5,20:1
5,23:1
5,30:1
5,31:1
5,32:1
5,37:1
5,39:1
5,43:1
6,1:1
6,7:1
6,8:1
6,9:1
6,10:1
6,11:1
6,12:1
6,13:1
6,14:1
6,15:1
6,17:1
6,18:1
6,20:1
6,23:1
6,30:1
6,31:1
6,32:1
6,37:1
6,39:1
6,43:1
7,3:1
7,4:1
7,5:1
7,6:1
7,16:1
7,19:1
7,21:1
7,22:1
7,24:1
8,3:1
8,4:1
8,5:1
8,6:1
8,16:1
8,19:1
8,21:1
8,22:1
8,24:1
9,4:1
9,6:1
9,16:1
9,19:1
9,21:1
9,22:1
9,24:1
9,25:1
9,26:1
9,27:1
9,28:1
9,29:1
9,33:1
9,34:1
9,35:1
9,36:1
9,38:1
9,40:1
9,41:1
10,3:1
10,5:1
10,16:1
10,19:1
10,21:1
10,22:1
10,24:1
10,25:1
10,26:1
10,27:1
10,28:1
10,29:1
10,33:1
10,34:1
10,35:1
10,36:1
10,38:1
10,40:1
10,41:1
11,3:1
11,4:1
11,5:1
11,6:1
12,3:1
12,4:1
12,5:1
12,6:1
13,3:1
13,4:1
13,5:1
13,6:1
14,3:1
14,4:1
14,5:1
14,6:1
14,16:1
14,19:1
14,21:1
14,22:1
14,24:1
14,25:1
14,29:1
15,3:1
15,4:1
15,5:1
15,6:1
15,16:1
15,24:1
15,25:1
15,26:1
15,27:1
15,29:1
16,1:1
16,2:1
16,7:1
16,8:1
16,9:1
16,10:1
16,14:1
16,17:1
16,18:1
16,23:1
16,30:1
16,31:1
16,32:1
16,37:1
16,39:1
16,43:1
17,3:1
17,4:1
17,5:1
17,6:1
17,16:1
17,19:1
17,21:1
17,22:1
17,24:1
17,25:1
17,26:1
17,27:1
17,29:1
18,3:1
18,4:1
18,5:1
18,6:1
18,16:1
18,19:1
18,24:1
18,25:1
18,26:1
18,27:1
18,29:1
19,1:1
19,2:1
19,7:1
19,8:1
19,9:1
19,10:1
19,14:1
19,17:1
19,20:1
19,23:1
19,30:1
19,31:1
19,32:1
19,37:1
19,39:1
19,43:1
20,3:1
20,4:1
20,5:1
20,6:1
20,21:1
20,24:1
20,25:1
20,26:1
20,27:1
20,29:1
20,33:1
20,34:1
20,35:1
20,36:1
21,1:1
21,2:1
21,7:1
21,8:1
21,9:1
21,10:1
21,14:1
21,17:1
21,23:1
21,30:1
21,31:1
21,32:1
21,37:1
21,39:1
21,43:1
22,1:1
22,2:1
22,7:1
22,8:1
22,9:1
22,10:1
22,14:1
22,17:1
22,23:1
22,30:1
22,31:1
22,32:1
22,37:1
22,39:1
22,43:1
23,3:1
23,4:1
23,5:1
23,6:1
23,16:1
23,19:1
23,21:1
23,22:1
23,24:1
23,25:1
23,26:1
23,27:1
23,28:1
23,29:1
23,33:1
24,1:1
24,2:1
24,7:1
24,8:1
24,9:1
24,10:1
24,14:1
24,17:1
24,18:1
24,20:1
24,23:1
24,30:1
24,31:1
24,32:1
24,37:1
24,39:1
24,43:1
25,9:1
25,10:1
25,15:1
25,17:1
25,18:1
25,20:1
25,23:1
25,30:1
25,31:1
25,32:1
25,37:1
25,39:1
25,43:1
26,9:1
26,10:1
26,15:1
26,18:1
26,20:1
26,23:1
26,30:1
26,31:1
26,32:1
26,37:1
26,39:1
26,43:1
27,9:1
27,10:1
27,15:1
27,18:1
27,20:1
27,23:1
27,30:1
27,31:1
27,32:1
27,37:1
27,39:1
27,43:1
28,9:1
28,10:1
28,23:1
28,30:1
28,31:1
28,32:1
28,37:1
28,39:1
28,43:1
29,9:1
29,10:1
29,15:1
29,17:1
29,18:1
29,20:1
29,23:1
29,30:1
29,31:1
29,32:1
29,37:1
29,39:1
29,43:1
30,3:1
30,4:1
30,5:1
30,6:1
30,16:1
30,19:1
30,21:1
30,22:1
30,24:1
30,25:1
30,26:1
30,27:1
30,28:1
30,29:1
30,33:1
30,34:1
30,35:1
30,36:1
30,38:1
30,40:1
30,41:1
31,3:1
31,4:1
31,5:1
31,6:1
31,16:1
31,19:1
31,21:1
31,22:1
31,24:1
31,25:1
31,26:1
31,27:1
31,28:1
31,29:1
31,33:1
31,34:1
31,35:1
31,36:1
31,38:1
31,40:1
31,41:1
32,3:1
32,4:1
32,5:1
32,6:1
32,16:1
32,19:1
32,21:1
32,22:1
32,24:1
32,25:1
32,26:1
32,27:1
32,28:1
32,29:1
32,33:1
32,34:1
32,35:1
32,36:1
32,38:1
32,40:1
32,41:1
33,9:1
33,10:1
33,20:1
33,30:1
33,31:1
33,32:1
33,37:1
33,39:1
33,43:1
34,9:1
34,10:1
34,20:1
34,30:1
34,31:1
34,32:1
34,37:1
34,39:1
34,43:1
35,9:1
35,10:1
35,20:1
35,30:1
35,31:1
35,32:1
35,37:1
35,39:1
35,43:1
36,9:1
36,10:1
36,20:1
36,30:1
36,31:1
36,32:1
36,37:1
36,39:1
36,43:1
37,3:1
37,4:1
37,5:1
37,6:1
37,16:1
37,19:1
37,21:1
37,22:1
37,24:1
37,25:1
37,26:1
37,27:1
37,28:1
37,29:1
37,33:1
37,34:1
37,35:1
37,36:1
37,38:1
37,40:1
37,41:1
37,42:1
37,44:1
37,45:1
38,9:1
38,10:1
38,30:1
38,31:1
38,32:1
38,37:1
38,39:1
38,43:1
39,3:1
39,4:1
39,5:1
39,6:1
39,16:1
39,19:1
39,21:1
39,22:1
39,24:1
39,25:1
39,26:1
39,27:1
39,28:1
39,29:1
39,33:1
39,34:1
39,35:1
39,36:1
39,38:1
39,40:1
39,41:1
40,9:1
40,10:1
40,30:1
40,31:1
40,32:1
40,37:1
40,39:1
40,43:1
41,37:1
41,43:1
42,37:1
42,43:1
43,3:1
43,4:1
43,5:1
43,6:1
43,16:1
43,19:1
43,21:1
43,22:1
43,24:1
43,25:1
43,26:1
43,27:1
43,28:1
43,29:1
43,33:1
43,34:1
43,35:1
43,36:1
43,38:1
43,40:1
43,41:1
43,42:1
43,44:1
43,45:1
44,37:1
44,43:1
45,37:1
45,43:1

<setup times backward>
3,1:1
3,2:1
3,7:1
3,8:1
3,10:1
3,11:1
3,12:1
3,13:1
3,14:1
3,15:1
3,17:1
3,18:1
3,20:1
3,23:1
3,30:1
3,31:1
3,32:1
3,37:1
3,39:1
3,43:1
4,1:1
4,2:1
4,7:1
4,8:1
4,9:1
4,11:1
4,12:1
4,13:1
4,14:1
4,15:1
4,17:1
4,18:1
4,20:1
4,23:1
4,30:1
4,31:1
4,32:1
4,37:1
4,39:1
4,43:1
5,1:1
5,2:1
5,7:1
5,8:1
5,10:1
5,11:1
5,12:1
5,13:1
5,14:1
5,15:1
5,17:1
5,18:1
5,20:1
5,23:1
5,30:1
5,31:1
5,32:1
5,37:1
5,39:1
5,43:1
6,1:1
6,2:1
6,7:1
6,8:1
6,9:1
6,11:1
6,12:1
6,13:1
6,14:1
6,15:1
6,17:1
6,18:1
6,20:1
6,23:1
6,30:1
6,31:1
6,32:1
6,37:1
6,39:1
6,43:1
16,1:1
16,2:1
16,7:1
16,8:1
16,9:1
16,10:1
16,11:1
16,12:1
16,13:1
16,14:1
16,15:1
16,17:1
16,18:1
16,23:1
16,30:1
16,31:1
16,32:1
16,37:1
16,39:1
16,43:1
19,1:1
19,2:1
19,7:1
19,8:1
19,9:1
19,10:1
19,11:1
19,12:1
19,13:1
19,14:1
19,15:1
19,17:1
19,18:1
19,23:1
19,30:1
19,31:1
19,32:1
19,37:1
19,39:1
19,43:1
21,1:1
21,2:1
21,7:1
21,8:1
21,9:1
21,10:1
21,11:1
21,12:1
21,13:1
21,14:1
21,15:1
21,17:1
21,18:1
21,20:1
21,23:1
21,30:1
21,31:1
21,32:1
21,37:1
21,39:1
21,43:1
22,1:1
22,2:1
22,7:1
22,8:1
22,9:1
22,10:1
22,11:1
22,12:1
22,13:1
22,14:1
22,15:1
22,17:1
22,18:1
22,20:1
22,23:1
22,30:1
22,31:1
22,32:1
22,37:1
22,39:1
22,43:1
24,1:1
24,2:1
24,7:1
24,8:1
24,9:1
24,10:1
24,11:1
24,12:1
24,13:1
24,14:1
24,15:1
24,17:1
24,18:1
24,20:1
24,23:1
24,30:1
24,31:1
24,32:1
24,37:1
24,39:1
24,43:1
25,1:1
25,2:1
25,7:1
25,8:1
25,9:1
25,10:1
25,11:1
25,12:1
25,13:1
25,14:1
25,15:1
25,17:1
25,18:1
25,20:1
25,23:1
25,30:1
25,31:1
25,32:1
25,37:1
25,39:1
25,43:1
26,1:1
26,2:1
26,7:1
26,8:1
26,9:1
26,10:1
26,11:1
26,12:1
26,13:1
26,14:1
26,15:1
26,17:1
26,18:1
26,20:1
26,23:1
26,30:1
26,31:1
26,32:1
26,37:1
26,39:1
26,43:1
27,1:1
27,2:1
27,7:1
27,8:1
27,9:1
27,10:1
27,11:1
27,12:1
27,13:1
27,14:1
27,15:1
27,17:1
27,18:1
27,20:1
27,23:1
27,30:1
27,31:1
27,32:1
27,37:1
27,39:1
27,43:1
28,1:1
28,2:1
28,7:1
28,8:1
28,9:1
28,10:1
28,11:1
28,12:1
28,13:1
28,14:1
28,15:1
28,17:1
28,18:1
28,20:1
28,23:1
28,30:1
28,31:1
28,32:1
28,37:1
28,39:1
28,43:1
29,1:1
29,2:1
29,7:1
29,8:1
29,9:1
29,10:1
29,11:1
29,12:1
29,13:1
29,14:1
29,15:1
29,17:1
29,18:1
29,20:1
29,23:1
29,30:1
29,31:1
29,32:1
29,37:1
29,39:1
29,43:1
33,1:1
33,2:1
33,7:1
33,8:1
33,9:1
33,10:1
33,11:1
33,12:1
33,13:1
33,14:1
33,15:1
33,17:1
33,18:1
33,20:1
33,23:1
33,30:1
33,31:1
33,32:1
33,37:1
33,39:1
33,43:1
34,1:1
34,2:1
34,7:1
34,8:1
34,9:1
34,10:1
34,11:1
34,12:1
34,13:1
34,14:1
34,15:1
34,17:1
34,18:1
34,20:1
34,23:1
34,30:1
34,31:1
34,32:1
34,37:1
34,39:1
34,43:1
35,1:1
35,2:1
35,7:1
35,8:1
35,9:1
35,10:1
35,11:1
35,12:1
35,13:1
35,14:1
35,15:1
35,17:1
35,18:1
35,20:1
35,23:1
35,30:1
35,31:1
35,32:1
35,37:1
35,39:1
35,43:1
36,1:1
36,2:1
36,7:1
36,8:1
36,9:1
36,10:1
36,11:1
36,12:1
36,13:1
36,14:1
36,15:1
36,17:1
36,18:1
36,20:1
36,23:1
36,30:1
36,31:1
36,32:1
36,37:1
36,39:1
36,43:1
38,1:1
38,2:1
38,7:1
38,8:1
38,9:1
38,10:1
38,11:1
38,12:1
38,13:1
38,14:1
38,15:1
38,17:1
38,18:1
38,20:1
38,23:1
38,30:1
38,31:1
38,32:1
38,37:1
38,39:1
38,43:1
40,1:1
40,2:1
40,7:1
40,8:1
40,9:1
40,10:1
40,11:1
40,12:1
40,13:1
40,14:1
40,15:1
40,17:1
40,18:1
40,20:1
40,23:1
40,30:1
40,31:1
40,32:1
40,37:1
40,39:1
40,43:1
41,1:1
41,2:1
41,7:1
41,8:1
41,9:1
41,10:1
41,11:1
41,12:1
41,13:1
41,14:1
41,15:1
41,17:1
41,18:1
41,20:1
41,23:1
41,30:1
41,31:1
41,32:1
41,37:1
41,39:1
41,43:1
42,1:1
42,2:1
42,7:1
42,8:1
42,9:1
42,10:1
42,11:1
42,12:1
42,13:1
42,14:1
42,15:1
42,17:1
42,18:1
42,20:1
42,23:1
42,30:1
42,31:1
42,32:1
42,37:1
42,39:1
42,43:1
44,1:1
44,2:1
44,7:1
44,8:1
44,9:1
44,10:1
44,11:1
44,12:1
44,13:1
44,14:1
44,15:1
44,17:1
44,18:1
44,20:1
44,23:1
44,30:1
44,31:1
44,32:1
44,37:1
44,39:1
44,43:1
45,1:1
45,2:1
45,7:1
45,8:1
45,9:1
45,10:1
45,11:1
45,12:1
45,13:1
45,14:1
45,15:1
45,17:1
45,18:1
45,20:1
45,23:1
45,30:1
45,31:1
45,32:1
45,37:1
45,39:1
45,43:1

<end>

<optimal SALBP-1 value>
5


<rand seed>
467321153

<Lower Bounds>
Lm1=5
Lms1=5
Lm2=0
Lm3=1
Lm4=5
Best=5

<Optimal Stations (Iterations: 10)>
6
